
        $ From http://www.csplib.org/Problems/prob009/data/helmut.pdf
        $ Problem number 170
        $ Sequence length : 25
        language ESSENCE' 1.0
        letting sizemaster be 541
        letting sizes be sequence(3,4,11,13,16,17,21,25,26,44,46,64,75,86,87,97,106,109,133,141,165,185,191,215,217)
        